c A SAT instance generated from a 3-CNF formula that had 22 clauses and 11 variables
p cnf 11 22
-7 3 6 0
-8 7 9 0
-4 -2 -8 0
4 9 8 0
7 -11 2 0
-5 3 11 0
6 -2 1 0
11 -4 -9 0
4 9 5 0
11 9 -2 0
-10 3 -2 0
6 3 -10 0
2 -6 9 0
-6 5 -11 0
8 9 11 0
-9 2 -7 0
7 1 -8 0
-1 -9 8 0
7 9 -3 0
1 -5 6 0
-10 9 3 0
6 7 4 0
